p cnf 729 3025
1 0
2 0
3 0
4 0
5 0
6 0
7 0
8 0
9 0
10 0
11 0
12 0
13 0
14 0
15 0
16 0
17 0
18 0
19 0
20 0
21 0
22 0
23 0
24 0
25 0
26 0
27 0
28 0
29 30 31 32 33 34 35 36 37 0
-29 -30 0
-29 -31 0
-29 -32 0
-29 -33 0
-29 -34 0
-29 -35 0
-29 -36 0
-29 -37 0
-30 -31 0
-30 -32 0
-30 -33 0
-30 -34 0
-30 -35 0
-30 -36 0
-30 -37 0
-31 -32 0
-31 -33 0
-31 -34 0
-31 -35 0
-31 -36 0
-31 -37 0
-32 -33 0
-32 -34 0
-32 -35 0
-32 -36 0
-32 -37 0
-33 -34 0
-33 -35 0
-33 -36 0
-33 -37 0
-34 -35 0
-34 -36 0
-34 -37 0
-35 -36 0
-35 -37 0
-36 -37 0
38 39 40 41 42 43 44 45 46 0
-38 -39 0
-38 -40 0
-38 -41 0
-38 -42 0
-38 -43 0
-38 -44 0
-38 -45 0
-38 -46 0
-39 -40 0
-39 -41 0
-39 -42 0
-39 -43 0
-39 -44 0
-39 -45 0
-39 -46 0
-40 -41 0
-40 -42 0
-40 -43 0
-40 -44 0
-40 -45 0
-40 -46 0
-41 -42 0
-41 -43 0
-41 -44 0
-41 -45 0
-41 -46 0
-42 -43 0
-42 -44 0
-42 -45 0
-42 -46 0
-43 -44 0
-43 -45 0
-43 -46 0
-44 -45 0
-44 -46 0
-45 -46 0
47 48 49 9 50 51 52 53 54 0
-47 -48 0
-47 -49 0
-47 -9 0
-47 -50 0
-47 -51 0
-47 -52 0
-47 -53 0
-47 -54 0
-48 -49 0
-48 -9 0
-48 -50 0
-48 -51 0
-48 -52 0
-48 -53 0
-48 -54 0
-49 -9 0
-49 -50 0
-49 -51 0
-49 -52 0
-49 -53 0
-49 -54 0
-9 -50 0
-9 -51 0
-9 -52 0
-9 -53 0
-9 -54 0
-50 -51 0
-50 -52 0
-50 -53 0
-50 -54 0
-51 -52 0
-51 -53 0
-51 -54 0
-52 -53 0
-52 -54 0
-53 -54 0
55 56 57 58 59 60 61 62 63 0
-55 -56 0
-55 -57 0
-55 -58 0
-55 -59 0
-55 -60 0
-55 -61 0
-55 -62 0
-55 -63 0
-56 -57 0
-56 -58 0
-56 -59 0
-56 -60 0
-56 -61 0
-56 -62 0
-56 -63 0
-57 -58 0
-57 -59 0
-57 -60 0
-57 -61 0
-57 -62 0
-57 -63 0
-58 -59 0
-58 -60 0
-58 -61 0
-58 -62 0
-58 -63 0
-59 -60 0
-59 -61 0
-59 -62 0
-59 -63 0
-60 -61 0
-60 -62 0
-60 -63 0
-61 -62 0
-61 -63 0
-62 -63 0
64 65 66 67 68 69 70 71 72 0
-64 -65 0
-64 -66 0
-64 -67 0
-64 -68 0
-64 -69 0
-64 -70 0
-64 -71 0
-64 -72 0
-65 -66 0
-65 -67 0
-65 -68 0
-65 -69 0
-65 -70 0
-65 -71 0
-65 -72 0
-66 -67 0
-66 -68 0
-66 -69 0
-66 -70 0
-66 -71 0
-66 -72 0
-67 -68 0
-67 -69 0
-67 -70 0
-67 -71 0
-67 -72 0
-68 -69 0
-68 -70 0
-68 -71 0
-68 -72 0
-69 -70 0
-69 -71 0
-69 -72 0
-70 -71 0
-70 -72 0
-71 -72 0
73 74 75 76 77 78 79 80 81 0
-73 -74 0
-73 -75 0
-73 -76 0
-73 -77 0
-73 -78 0
-73 -79 0
-73 -80 0
-73 -81 0
-74 -75 0
-74 -76 0
-74 -77 0
-74 -78 0
-74 -79 0
-74 -80 0
-74 -81 0
-75 -76 0
-75 -77 0
-75 -78 0
-75 -79 0
-75 -80 0
-75 -81 0
-76 -77 0
-76 -78 0
-76 -79 0
-76 -80 0
-76 -81 0
-77 -78 0
-77 -79 0
-77 -80 0
-77 -81 0
-78 -79 0
-78 -80 0
-78 -81 0
-79 -80 0
-79 -81 0
-80 -81 0
82 83 84 85 86 87 88 89 90 0
-82 -83 0
-82 -84 0
-82 -85 0
-82 -86 0
-82 -87 0
-82 -88 0
-82 -89 0
-82 -90 0
-83 -84 0
-83 -85 0
-83 -86 0
-83 -87 0
-83 -88 0
-83 -89 0
-83 -90 0
-84 -85 0
-84 -86 0
-84 -87 0
-84 -88 0
-84 -89 0
-84 -90 0
-85 -86 0
-85 -87 0
-85 -88 0
-85 -89 0
-85 -90 0
-86 -87 0
-86 -88 0
-86 -89 0
-86 -90 0
-87 -88 0
-87 -89 0
-87 -90 0
-88 -89 0
-88 -90 0
-89 -90 0
91 92 93 94 95 96 97 98 99 0
-91 -92 0
-91 -93 0
-91 -94 0
-91 -95 0
-91 -96 0
-91 -97 0
-91 -98 0
-91 -99 0
-92 -93 0
-92 -94 0
-92 -95 0
-92 -96 0
-92 -97 0
-92 -98 0
-92 -99 0
-93 -94 0
-93 -95 0
-93 -96 0
-93 -97 0
-93 -98 0
-93 -99 0
-94 -95 0
-94 -96 0
-94 -97 0
-94 -98 0
-94 -99 0
-95 -96 0
-95 -97 0
-95 -98 0
-95 -99 0
-96 -97 0
-96 -98 0
-96 -99 0
-97 -98 0
-97 -99 0
-98 -99 0
100 101 102 103 104 16 105 106 107 0
-100 -101 0
-100 -102 0
-100 -103 0
-100 -104 0
-100 -16 0
-100 -105 0
-100 -106 0
-100 -107 0
-101 -102 0
-101 -103 0
-101 -104 0
-101 -16 0
-101 -105 0
-101 -106 0
-101 -107 0
-102 -103 0
-102 -104 0
-102 -16 0
-102 -105 0
-102 -106 0
-102 -107 0
-103 -104 0
-103 -16 0
-103 -105 0
-103 -106 0
-103 -107 0
-104 -16 0
-104 -105 0
-104 -106 0
-104 -107 0
-16 -105 0
-16 -106 0
-16 -107 0
-105 -106 0
-105 -107 0
-106 -107 0
108 109 110 111 112 113 114 115 116 0
-108 -109 0
-108 -110 0
-108 -111 0
-108 -112 0
-108 -113 0
-108 -114 0
-108 -115 0
-108 -116 0
-109 -110 0
-109 -111 0
-109 -112 0
-109 -113 0
-109 -114 0
-109 -115 0
-109 -116 0
-110 -111 0
-110 -112 0
-110 -113 0
-110 -114 0
-110 -115 0
-110 -116 0
-111 -112 0
-111 -113 0
-111 -114 0
-111 -115 0
-111 -116 0
-112 -113 0
-112 -114 0
-112 -115 0
-112 -116 0
-113 -114 0
-113 -115 0
-113 -116 0
-114 -115 0
-114 -116 0
-115 -116 0
117 118 119 10 120 121 122 123 124 0
-117 -118 0
-117 -119 0
-117 -10 0
-117 -120 0
-117 -121 0
-117 -122 0
-117 -123 0
-117 -124 0
-118 -119 0
-118 -10 0
-118 -120 0
-118 -121 0
-118 -122 0
-118 -123 0
-118 -124 0
-119 -10 0
-119 -120 0
-119 -121 0
-119 -122 0
-119 -123 0
-119 -124 0
-10 -120 0
-10 -121 0
-10 -122 0
-10 -123 0
-10 -124 0
-120 -121 0
-120 -122 0
-120 -123 0
-120 -124 0
-121 -122 0
-121 -123 0
-121 -124 0
-122 -123 0
-122 -124 0
-123 -124 0
125 126 127 128 129 130 131 132 133 0
-125 -126 0
-125 -127 0
-125 -128 0
-125 -129 0
-125 -130 0
-125 -131 0
-125 -132 0
-125 -133 0
-126 -127 0
-126 -128 0
-126 -129 0
-126 -130 0
-126 -131 0
-126 -132 0
-126 -133 0
-127 -128 0
-127 -129 0
-127 -130 0
-127 -131 0
-127 -132 0
-127 -133 0
-128 -129 0
-128 -130 0
-128 -131 0
-128 -132 0
-128 -133 0
-129 -130 0
-129 -131 0
-129 -132 0
-129 -133 0
-130 -131 0
-130 -132 0
-130 -133 0
-131 -132 0
-131 -133 0
-132 -133 0
1 134 135 136 137 138 139 140 141 0
-1 -134 0
-1 -135 0
-1 -136 0
-1 -137 0
-1 -138 0
-1 -139 0
-1 -140 0
-1 -141 0
-134 -135 0
-134 -136 0
-134 -137 0
-134 -138 0
-134 -139 0
-134 -140 0
-134 -141 0
-135 -136 0
-135 -137 0
-135 -138 0
-135 -139 0
-135 -140 0
-135 -141 0
-136 -137 0
-136 -138 0
-136 -139 0
-136 -140 0
-136 -141 0
-137 -138 0
-137 -139 0
-137 -140 0
-137 -141 0
-138 -139 0
-138 -140 0
-138 -141 0
-139 -140 0
-139 -141 0
-140 -141 0
142 143 144 145 146 147 148 149 150 0
-142 -143 0
-142 -144 0
-142 -145 0
-142 -146 0
-142 -147 0
-142 -148 0
-142 -149 0
-142 -150 0
-143 -144 0
-143 -145 0
-143 -146 0
-143 -147 0
-143 -148 0
-143 -149 0
-143 -150 0
-144 -145 0
-144 -146 0
-144 -147 0
-144 -148 0
-144 -149 0
-144 -150 0
-145 -146 0
-145 -147 0
-145 -148 0
-145 -149 0
-145 -150 0
-146 -147 0
-146 -148 0
-146 -149 0
-146 -150 0
-147 -148 0
-147 -149 0
-147 -150 0
-148 -149 0
-148 -150 0
-149 -150 0
151 152 153 154 155 17 156 157 158 0
-151 -152 0
-151 -153 0
-151 -154 0
-151 -155 0
-151 -17 0
-151 -156 0
-151 -157 0
-151 -158 0
-152 -153 0
-152 -154 0
-152 -155 0
-152 -17 0
-152 -156 0
-152 -157 0
-152 -158 0
-153 -154 0
-153 -155 0
-153 -17 0
-153 -156 0
-153 -157 0
-153 -158 0
-154 -155 0
-154 -17 0
-154 -156 0
-154 -157 0
-154 -158 0
-155 -17 0
-155 -156 0
-155 -157 0
-155 -158 0
-17 -156 0
-17 -157 0
-17 -158 0
-156 -157 0
-156 -158 0
-157 -158 0
159 160 161 162 163 164 165 166 167 0
-159 -160 0
-159 -161 0
-159 -162 0
-159 -163 0
-159 -164 0
-159 -165 0
-159 -166 0
-159 -167 0
-160 -161 0
-160 -162 0
-160 -163 0
-160 -164 0
-160 -165 0
-160 -166 0
-160 -167 0
-161 -162 0
-161 -163 0
-161 -164 0
-161 -165 0
-161 -166 0
-161 -167 0
-162 -163 0
-162 -164 0
-162 -165 0
-162 -166 0
-162 -167 0
-163 -164 0
-163 -165 0
-163 -166 0
-163 -167 0
-164 -165 0
-164 -166 0
-164 -167 0
-165 -166 0
-165 -167 0
-166 -167 0
168 169 170 171 172 173 174 175 176 0
-168 -169 0
-168 -170 0
-168 -171 0
-168 -172 0
-168 -173 0
-168 -174 0
-168 -175 0
-168 -176 0
-169 -170 0
-169 -171 0
-169 -172 0
-169 -173 0
-169 -174 0
-169 -175 0
-169 -176 0
-170 -171 0
-170 -172 0
-170 -173 0
-170 -174 0
-170 -175 0
-170 -176 0
-171 -172 0
-171 -173 0
-171 -174 0
-171 -175 0
-171 -176 0
-172 -173 0
-172 -174 0
-172 -175 0
-172 -176 0
-173 -174 0
-173 -175 0
-173 -176 0
-174 -175 0
-174 -176 0
-175 -176 0
177 178 179 180 181 182 183 184 27 0
-177 -178 0
-177 -179 0
-177 -180 0
-177 -181 0
-177 -182 0
-177 -183 0
-177 -184 0
-177 -27 0
-178 -179 0
-178 -180 0
-178 -181 0
-178 -182 0
-178 -183 0
-178 -184 0
-178 -27 0
-179 -180 0
-179 -181 0
-179 -182 0
-179 -183 0
-179 -184 0
-179 -27 0
-180 -181 0
-180 -182 0
-180 -183 0
-180 -184 0
-180 -27 0
-181 -182 0
-181 -183 0
-181 -184 0
-181 -27 0
-182 -183 0
-182 -184 0
-182 -27 0
-183 -184 0
-183 -27 0
-184 -27 0
185 186 187 188 189 190 191 24 192 0
-185 -186 0
-185 -187 0
-185 -188 0
-185 -189 0
-185 -190 0
-185 -191 0
-185 -24 0
-185 -192 0
-186 -187 0
-186 -188 0
-186 -189 0
-186 -190 0
-186 -191 0
-186 -24 0
-186 -192 0
-187 -188 0
-187 -189 0
-187 -190 0
-187 -191 0
-187 -24 0
-187 -192 0
-188 -189 0
-188 -190 0
-188 -191 0
-188 -24 0
-188 -192 0
-189 -190 0
-189 -191 0
-189 -24 0
-189 -192 0
-190 -191 0
-190 -24 0
-190 -192 0
-191 -24 0
-191 -192 0
-24 -192 0
193 194 195 196 197 198 199 200 201 0
-193 -194 0
-193 -195 0
-193 -196 0
-193 -197 0
-193 -198 0
-193 -199 0
-193 -200 0
-193 -201 0
-194 -195 0
-194 -196 0
-194 -197 0
-194 -198 0
-194 -199 0
-194 -200 0
-194 -201 0
-195 -196 0
-195 -197 0
-195 -198 0
-195 -199 0
-195 -200 0
-195 -201 0
-196 -197 0
-196 -198 0
-196 -199 0
-196 -200 0
-196 -201 0
-197 -198 0
-197 -199 0
-197 -200 0
-197 -201 0
-198 -199 0
-198 -200 0
-198 -201 0
-199 -200 0
-199 -201 0
-200 -201 0
202 203 204 205 206 207 208 209 210 0
-202 -203 0
-202 -204 0
-202 -205 0
-202 -206 0
-202 -207 0
-202 -208 0
-202 -209 0
-202 -210 0
-203 -204 0
-203 -205 0
-203 -206 0
-203 -207 0
-203 -208 0
-203 -209 0
-203 -210 0
-204 -205 0
-204 -206 0
-204 -207 0
-204 -208 0
-204 -209 0
-204 -210 0
-205 -206 0
-205 -207 0
-205 -208 0
-205 -209 0
-205 -210 0
-206 -207 0
-206 -208 0
-206 -209 0
-206 -210 0
-207 -208 0
-207 -209 0
-207 -210 0
-208 -209 0
-208 -210 0
-209 -210 0
211 212 213 214 215 216 217 218 219 0
-211 -212 0
-211 -213 0
-211 -214 0
-211 -215 0
-211 -216 0
-211 -217 0
-211 -218 0
-211 -219 0
-212 -213 0
-212 -214 0
-212 -215 0
-212 -216 0
-212 -217 0
-212 -218 0
-212 -219 0
-213 -214 0
-213 -215 0
-213 -216 0
-213 -217 0
-213 -218 0
-213 -219 0
-214 -215 0
-214 -216 0
-214 -217 0
-214 -218 0
-214 -219 0
-215 -216 0
-215 -217 0
-215 -218 0
-215 -219 0
-216 -217 0
-216 -218 0
-216 -219 0
-217 -218 0
-217 -219 0
-218 -219 0
220 221 222 223 224 225 226 227 228 0
-220 -221 0
-220 -222 0
-220 -223 0
-220 -224 0
-220 -225 0
-220 -226 0
-220 -227 0
-220 -228 0
-221 -222 0
-221 -223 0
-221 -224 0
-221 -225 0
-221 -226 0
-221 -227 0
-221 -228 0
-222 -223 0
-222 -224 0
-222 -225 0
-222 -226 0
-222 -227 0
-222 -228 0
-223 -224 0
-223 -225 0
-223 -226 0
-223 -227 0
-223 -228 0
-224 -225 0
-224 -226 0
-224 -227 0
-224 -228 0
-225 -226 0
-225 -227 0
-225 -228 0
-226 -227 0
-226 -228 0
-227 -228 0
229 230 231 232 233 234 235 236 237 0
-229 -230 0
-229 -231 0
-229 -232 0
-229 -233 0
-229 -234 0
-229 -235 0
-229 -236 0
-229 -237 0
-230 -231 0
-230 -232 0
-230 -233 0
-230 -234 0
-230 -235 0
-230 -236 0
-230 -237 0
-231 -232 0
-231 -233 0
-231 -234 0
-231 -235 0
-231 -236 0
-231 -237 0
-232 -233 0
-232 -234 0
-232 -235 0
-232 -236 0
-232 -237 0
-233 -234 0
-233 -235 0
-233 -236 0
-233 -237 0
-234 -235 0
-234 -236 0
-234 -237 0
-235 -236 0
-235 -237 0
-236 -237 0
238 239 240 241 14 242 243 244 245 0
-238 -239 0
-238 -240 0
-238 -241 0
-238 -14 0
-238 -242 0
-238 -243 0
-238 -244 0
-238 -245 0
-239 -240 0
-239 -241 0
-239 -14 0
-239 -242 0
-239 -243 0
-239 -244 0
-239 -245 0
-240 -241 0
-240 -14 0
-240 -242 0
-240 -243 0
-240 -244 0
-240 -245 0
-241 -14 0
-241 -242 0
-241 -243 0
-241 -244 0
-241 -245 0
-14 -242 0
-14 -243 0
-14 -244 0
-14 -245 0
-242 -243 0
-242 -244 0
-242 -245 0
-243 -244 0
-243 -245 0
-244 -245 0
246 3 247 248 249 250 251 252 253 0
-246 -3 0
-246 -247 0
-246 -248 0
-246 -249 0
-246 -250 0
-246 -251 0
-246 -252 0
-246 -253 0
-3 -247 0
-3 -248 0
-3 -249 0
-3 -250 0
-3 -251 0
-3 -252 0
-3 -253 0
-247 -248 0
-247 -249 0
-247 -250 0
-247 -251 0
-247 -252 0
-247 -253 0
-248 -249 0
-248 -250 0
-248 -251 0
-248 -252 0
-248 -253 0
-249 -250 0
-249 -251 0
-249 -252 0
-249 -253 0
-250 -251 0
-250 -252 0
-250 -253 0
-251 -252 0
-251 -253 0
-252 -253 0
254 255 256 257 258 259 260 261 262 0
-254 -255 0
-254 -256 0
-254 -257 0
-254 -258 0
-254 -259 0
-254 -260 0
-254 -261 0
-254 -262 0
-255 -256 0
-255 -257 0
-255 -258 0
-255 -259 0
-255 -260 0
-255 -261 0
-255 -262 0
-256 -257 0
-256 -258 0
-256 -259 0
-256 -260 0
-256 -261 0
-256 -262 0
-257 -258 0
-257 -259 0
-257 -260 0
-257 -261 0
-257 -262 0
-258 -259 0
-258 -260 0
-258 -261 0
-258 -262 0
-259 -260 0
-259 -261 0
-259 -262 0
-260 -261 0
-260 -262 0
-261 -262 0
263 264 265 266 267 268 269 270 271 0
-263 -264 0
-263 -265 0
-263 -266 0
-263 -267 0
-263 -268 0
-263 -269 0
-263 -270 0
-263 -271 0
-264 -265 0
-264 -266 0
-264 -267 0
-264 -268 0
-264 -269 0
-264 -270 0
-264 -271 0
-265 -266 0
-265 -267 0
-265 -268 0
-265 -269 0
-265 -270 0
-265 -271 0
-266 -267 0
-266 -268 0
-266 -269 0
-266 -270 0
-266 -271 0
-267 -268 0
-267 -269 0
-267 -270 0
-267 -271 0
-268 -269 0
-268 -270 0
-268 -271 0
-269 -270 0
-269 -271 0
-270 -271 0
272 273 274 275 276 277 278 279 280 0
-272 -273 0
-272 -274 0
-272 -275 0
-272 -276 0
-272 -277 0
-272 -278 0
-272 -279 0
-272 -280 0
-273 -274 0
-273 -275 0
-273 -276 0
-273 -277 0
-273 -278 0
-273 -279 0
-273 -280 0
-274 -275 0
-274 -276 0
-274 -277 0
-274 -278 0
-274 -279 0
-274 -280 0
-275 -276 0
-275 -277 0
-275 -278 0
-275 -279 0
-275 -280 0
-276 -277 0
-276 -278 0
-276 -279 0
-276 -280 0
-277 -278 0
-277 -279 0
-277 -280 0
-278 -279 0
-278 -280 0
-279 -280 0
281 282 283 284 285 286 287 288 289 0
-281 -282 0
-281 -283 0
-281 -284 0
-281 -285 0
-281 -286 0
-281 -287 0
-281 -288 0
-281 -289 0
-282 -283 0
-282 -284 0
-282 -285 0
-282 -286 0
-282 -287 0
-282 -288 0
-282 -289 0
-283 -284 0
-283 -285 0
-283 -286 0
-283 -287 0
-283 -288 0
-283 -289 0
-284 -285 0
-284 -286 0
-284 -287 0
-284 -288 0
-284 -289 0
-285 -286 0
-285 -287 0
-285 -288 0
-285 -289 0
-286 -287 0
-286 -288 0
-286 -289 0
-287 -288 0
-287 -289 0
-288 -289 0
290 291 292 293 294 295 296 297 298 0
-290 -291 0
-290 -292 0
-290 -293 0
-290 -294 0
-290 -295 0
-290 -296 0
-290 -297 0
-290 -298 0
-291 -292 0
-291 -293 0
-291 -294 0
-291 -295 0
-291 -296 0
-291 -297 0
-291 -298 0
-292 -293 0
-292 -294 0
-292 -295 0
-292 -296 0
-292 -297 0
-292 -298 0
-293 -294 0
-293 -295 0
-293 -296 0
-293 -297 0
-293 -298 0
-294 -295 0
-294 -296 0
-294 -297 0
-294 -298 0
-295 -296 0
-295 -297 0
-295 -298 0
-296 -297 0
-296 -298 0
-297 -298 0
299 300 301 302 303 304 305 306 307 0
-299 -300 0
-299 -301 0
-299 -302 0
-299 -303 0
-299 -304 0
-299 -305 0
-299 -306 0
-299 -307 0
-300 -301 0
-300 -302 0
-300 -303 0
-300 -304 0
-300 -305 0
-300 -306 0
-300 -307 0
-301 -302 0
-301 -303 0
-301 -304 0
-301 -305 0
-301 -306 0
-301 -307 0
-302 -303 0
-302 -304 0
-302 -305 0
-302 -306 0
-302 -307 0
-303 -304 0
-303 -305 0
-303 -306 0
-303 -307 0
-304 -305 0
-304 -306 0
-304 -307 0
-305 -306 0
-305 -307 0
-306 -307 0
308 309 6 310 311 312 313 314 315 0
-308 -309 0
-308 -6 0
-308 -310 0
-308 -311 0
-308 -312 0
-308 -313 0
-308 -314 0
-308 -315 0
-309 -6 0
-309 -310 0
-309 -311 0
-309 -312 0
-309 -313 0
-309 -314 0
-309 -315 0
-6 -310 0
-6 -311 0
-6 -312 0
-6 -313 0
-6 -314 0
-6 -315 0
-310 -311 0
-310 -312 0
-310 -313 0
-310 -314 0
-310 -315 0
-311 -312 0
-311 -313 0
-311 -314 0
-311 -315 0
-312 -313 0
-312 -314 0
-312 -315 0
-313 -314 0
-313 -315 0
-314 -315 0
316 317 318 319 320 321 21 322 323 0
-316 -317 0
-316 -318 0
-316 -319 0
-316 -320 0
-316 -321 0
-316 -21 0
-316 -322 0
-316 -323 0
-317 -318 0
-317 -319 0
-317 -320 0
-317 -321 0
-317 -21 0
-317 -322 0
-317 -323 0
-318 -319 0
-318 -320 0
-318 -321 0
-318 -21 0
-318 -322 0
-318 -323 0
-319 -320 0
-319 -321 0
-319 -21 0
-319 -322 0
-319 -323 0
-320 -321 0
-320 -21 0
-320 -322 0
-320 -323 0
-321 -21 0
-321 -322 0
-321 -323 0
-21 -322 0
-21 -323 0
-322 -323 0
324 325 326 327 328 329 330 331 332 0
-324 -325 0
-324 -326 0
-324 -327 0
-324 -328 0
-324 -329 0
-324 -330 0
-324 -331 0
-324 -332 0
-325 -326 0
-325 -327 0
-325 -328 0
-325 -329 0
-325 -330 0
-325 -331 0
-325 -332 0
-326 -327 0
-326 -328 0
-326 -329 0
-326 -330 0
-326 -331 0
-326 -332 0
-327 -328 0
-327 -329 0
-327 -330 0
-327 -331 0
-327 -332 0
-328 -329 0
-328 -330 0
-328 -331 0
-328 -332 0
-329 -330 0
-329 -331 0
-329 -332 0
-330 -331 0
-330 -332 0
-331 -332 0
333 334 335 336 337 338 339 340 341 0
-333 -334 0
-333 -335 0
-333 -336 0
-333 -337 0
-333 -338 0
-333 -339 0
-333 -340 0
-333 -341 0
-334 -335 0
-334 -336 0
-334 -337 0
-334 -338 0
-334 -339 0
-334 -340 0
-334 -341 0
-335 -336 0
-335 -337 0
-335 -338 0
-335 -339 0
-335 -340 0
-335 -341 0
-336 -337 0
-336 -338 0
-336 -339 0
-336 -340 0
-336 -341 0
-337 -338 0
-337 -339 0
-337 -340 0
-337 -341 0
-338 -339 0
-338 -340 0
-338 -341 0
-339 -340 0
-339 -341 0
-340 -341 0
342 343 344 345 346 18 347 348 349 0
-342 -343 0
-342 -344 0
-342 -345 0
-342 -346 0
-342 -18 0
-342 -347 0
-342 -348 0
-342 -349 0
-343 -344 0
-343 -345 0
-343 -346 0
-343 -18 0
-343 -347 0
-343 -348 0
-343 -349 0
-344 -345 0
-344 -346 0
-344 -18 0
-344 -347 0
-344 -348 0
-344 -349 0
-345 -346 0
-345 -18 0
-345 -347 0
-345 -348 0
-345 -349 0
-346 -18 0
-346 -347 0
-346 -348 0
-346 -349 0
-18 -347 0
-18 -348 0
-18 -349 0
-347 -348 0
-347 -349 0
-348 -349 0
350 351 352 353 354 355 356 25 357 0
-350 -351 0
-350 -352 0
-350 -353 0
-350 -354 0
-350 -355 0
-350 -356 0
-350 -25 0
-350 -357 0
-351 -352 0
-351 -353 0
-351 -354 0
-351 -355 0
-351 -356 0
-351 -25 0
-351 -357 0
-352 -353 0
-352 -354 0
-352 -355 0
-352 -356 0
-352 -25 0
-352 -357 0
-353 -354 0
-353 -355 0
-353 -356 0
-353 -25 0
-353 -357 0
-354 -355 0
-354 -356 0
-354 -25 0
-354 -357 0
-355 -356 0
-355 -25 0
-355 -357 0
-356 -25 0
-356 -357 0
-25 -357 0
358 4 359 360 361 362 363 364 365 0
-358 -4 0
-358 -359 0
-358 -360 0
-358 -361 0
-358 -362 0
-358 -363 0
-358 -364 0
-358 -365 0
-4 -359 0
-4 -360 0
-4 -361 0
-4 -362 0
-4 -363 0
-4 -364 0
-4 -365 0
-359 -360 0
-359 -361 0
-359 -362 0
-359 -363 0
-359 -364 0
-359 -365 0
-360 -361 0
-360 -362 0
-360 -363 0
-360 -364 0
-360 -365 0
-361 -362 0
-361 -363 0
-361 -364 0
-361 -365 0
-362 -363 0
-362 -364 0
-362 -365 0
-363 -364 0
-363 -365 0
-364 -365 0
366 367 368 369 370 371 372 373 374 0
-366 -367 0
-366 -368 0
-366 -369 0
-366 -370 0
-366 -371 0
-366 -372 0
-366 -373 0
-366 -374 0
-367 -368 0
-367 -369 0
-367 -370 0
-367 -371 0
-367 -372 0
-367 -373 0
-367 -374 0
-368 -369 0
-368 -370 0
-368 -371 0
-368 -372 0
-368 -373 0
-368 -374 0
-369 -370 0
-369 -371 0
-369 -372 0
-369 -373 0
-369 -374 0
-370 -371 0
-370 -372 0
-370 -373 0
-370 -374 0
-371 -372 0
-371 -373 0
-371 -374 0
-372 -373 0
-372 -374 0
-373 -374 0
375 376 377 378 379 380 381 382 383 0
-375 -376 0
-375 -377 0
-375 -378 0
-375 -379 0
-375 -380 0
-375 -381 0
-375 -382 0
-375 -383 0
-376 -377 0
-376 -378 0
-376 -379 0
-376 -380 0
-376 -381 0
-376 -382 0
-376 -383 0
-377 -378 0
-377 -379 0
-377 -380 0
-377 -381 0
-377 -382 0
-377 -383 0
-378 -379 0
-378 -380 0
-378 -381 0
-378 -382 0
-378 -383 0
-379 -380 0
-379 -381 0
-379 -382 0
-379 -383 0
-380 -381 0
-380 -382 0
-380 -383 0
-381 -382 0
-381 -383 0
-382 -383 0
384 385 386 11 387 388 389 390 391 0
-384 -385 0
-384 -386 0
-384 -11 0
-384 -387 0
-384 -388 0
-384 -389 0
-384 -390 0
-384 -391 0
-385 -386 0
-385 -11 0
-385 -387 0
-385 -388 0
-385 -389 0
-385 -390 0
-385 -391 0
-386 -11 0
-386 -387 0
-386 -388 0
-386 -389 0
-386 -390 0
-386 -391 0
-11 -387 0
-11 -388 0
-11 -389 0
-11 -390 0
-11 -391 0
-387 -388 0
-387 -389 0
-387 -390 0
-387 -391 0
-388 -389 0
-388 -390 0
-388 -391 0
-389 -390 0
-389 -391 0
-390 -391 0
392 393 394 395 396 397 398 399 400 0
-392 -393 0
-392 -394 0
-392 -395 0
-392 -396 0
-392 -397 0
-392 -398 0
-392 -399 0
-392 -400 0
-393 -394 0
-393 -395 0
-393 -396 0
-393 -397 0
-393 -398 0
-393 -399 0
-393 -400 0
-394 -395 0
-394 -396 0
-394 -397 0
-394 -398 0
-394 -399 0
-394 -400 0
-395 -396 0
-395 -397 0
-395 -398 0
-395 -399 0
-395 -400 0
-396 -397 0
-396 -398 0
-396 -399 0
-396 -400 0
-397 -398 0
-397 -399 0
-397 -400 0
-398 -399 0
-398 -400 0
-399 -400 0
401 402 7 403 404 405 406 407 408 0
-401 -402 0
-401 -7 0
-401 -403 0
-401 -404 0
-401 -405 0
-401 -406 0
-401 -407 0
-401 -408 0
-402 -7 0
-402 -403 0
-402 -404 0
-402 -405 0
-402 -406 0
-402 -407 0
-402 -408 0
-7 -403 0
-7 -404 0
-7 -405 0
-7 -406 0
-7 -407 0
-7 -408 0
-403 -404 0
-403 -405 0
-403 -406 0
-403 -407 0
-403 -408 0
-404 -405 0
-404 -406 0
-404 -407 0
-404 -408 0
-405 -406 0
-405 -407 0
-405 -408 0
-406 -407 0
-406 -408 0
-407 -408 0
409 410 411 412 413 414 22 415 416 0
-409 -410 0
-409 -411 0
-409 -412 0
-409 -413 0
-409 -414 0
-409 -22 0
-409 -415 0
-409 -416 0
-410 -411 0
-410 -412 0
-410 -413 0
-410 -414 0
-410 -22 0
-410 -415 0
-410 -416 0
-411 -412 0
-411 -413 0
-411 -414 0
-411 -22 0
-411 -415 0
-411 -416 0
-412 -413 0
-412 -414 0
-412 -22 0
-412 -415 0
-412 -416 0
-413 -414 0
-413 -22 0
-413 -415 0
-413 -416 0
-414 -22 0
-414 -415 0
-414 -416 0
-22 -415 0
-22 -416 0
-415 -416 0
417 418 419 420 421 422 423 424 425 0
-417 -418 0
-417 -419 0
-417 -420 0
-417 -421 0
-417 -422 0
-417 -423 0
-417 -424 0
-417 -425 0
-418 -419 0
-418 -420 0
-418 -421 0
-418 -422 0
-418 -423 0
-418 -424 0
-418 -425 0
-419 -420 0
-419 -421 0
-419 -422 0
-419 -423 0
-419 -424 0
-419 -425 0
-420 -421 0
-420 -422 0
-420 -423 0
-420 -424 0
-420 -425 0
-421 -422 0
-421 -423 0
-421 -424 0
-421 -425 0
-422 -423 0
-422 -424 0
-422 -425 0
-423 -424 0
-423 -425 0
-424 -425 0
426 427 8 428 429 430 431 432 433 0
-426 -427 0
-426 -8 0
-426 -428 0
-426 -429 0
-426 -430 0
-426 -431 0
-426 -432 0
-426 -433 0
-427 -8 0
-427 -428 0
-427 -429 0
-427 -430 0
-427 -431 0
-427 -432 0
-427 -433 0
-8 -428 0
-8 -429 0
-8 -430 0
-8 -431 0
-8 -432 0
-8 -433 0
-428 -429 0
-428 -430 0
-428 -431 0
-428 -432 0
-428 -433 0
-429 -430 0
-429 -431 0
-429 -432 0
-429 -433 0
-430 -431 0
-430 -432 0
-430 -433 0
-431 -432 0
-431 -433 0
-432 -433 0
434 435 436 437 438 439 440 441 442 0
-434 -435 0
-434 -436 0
-434 -437 0
-434 -438 0
-434 -439 0
-434 -440 0
-434 -441 0
-434 -442 0
-435 -436 0
-435 -437 0
-435 -438 0
-435 -439 0
-435 -440 0
-435 -441 0
-435 -442 0
-436 -437 0
-436 -438 0
-436 -439 0
-436 -440 0
-436 -441 0
-436 -442 0
-437 -438 0
-437 -439 0
-437 -440 0
-437 -441 0
-437 -442 0
-438 -439 0
-438 -440 0
-438 -441 0
-438 -442 0
-439 -440 0
-439 -441 0
-439 -442 0
-440 -441 0
-440 -442 0
-441 -442 0
443 444 445 446 447 448 449 450 451 0
-443 -444 0
-443 -445 0
-443 -446 0
-443 -447 0
-443 -448 0
-443 -449 0
-443 -450 0
-443 -451 0
-444 -445 0
-444 -446 0
-444 -447 0
-444 -448 0
-444 -449 0
-444 -450 0
-444 -451 0
-445 -446 0
-445 -447 0
-445 -448 0
-445 -449 0
-445 -450 0
-445 -451 0
-446 -447 0
-446 -448 0
-446 -449 0
-446 -450 0
-446 -451 0
-447 -448 0
-447 -449 0
-447 -450 0
-447 -451 0
-448 -449 0
-448 -450 0
-448 -451 0
-449 -450 0
-449 -451 0
-450 -451 0
452 453 454 455 456 457 458 459 460 0
-452 -453 0
-452 -454 0
-452 -455 0
-452 -456 0
-452 -457 0
-452 -458 0
-452 -459 0
-452 -460 0
-453 -454 0
-453 -455 0
-453 -456 0
-453 -457 0
-453 -458 0
-453 -459 0
-453 -460 0
-454 -455 0
-454 -456 0
-454 -457 0
-454 -458 0
-454 -459 0
-454 -460 0
-455 -456 0
-455 -457 0
-455 -458 0
-455 -459 0
-455 -460 0
-456 -457 0
-456 -458 0
-456 -459 0
-456 -460 0
-457 -458 0
-457 -459 0
-457 -460 0
-458 -459 0
-458 -460 0
-459 -460 0
461 462 463 464 465 466 467 468 469 0
-461 -462 0
-461 -463 0
-461 -464 0
-461 -465 0
-461 -466 0
-461 -467 0
-461 -468 0
-461 -469 0
-462 -463 0
-462 -464 0
-462 -465 0
-462 -466 0
-462 -467 0
-462 -468 0
-462 -469 0
-463 -464 0
-463 -465 0
-463 -466 0
-463 -467 0
-463 -468 0
-463 -469 0
-464 -465 0
-464 -466 0
-464 -467 0
-464 -468 0
-464 -469 0
-465 -466 0
-465 -467 0
-465 -468 0
-465 -469 0
-466 -467 0
-466 -468 0
-466 -469 0
-467 -468 0
-467 -469 0
-468 -469 0
470 471 472 473 474 475 476 477 478 0
-470 -471 0
-470 -472 0
-470 -473 0
-470 -474 0
-470 -475 0
-470 -476 0
-470 -477 0
-470 -478 0
-471 -472 0
-471 -473 0
-471 -474 0
-471 -475 0
-471 -476 0
-471 -477 0
-471 -478 0
-472 -473 0
-472 -474 0
-472 -475 0
-472 -476 0
-472 -477 0
-472 -478 0
-473 -474 0
-473 -475 0
-473 -476 0
-473 -477 0
-473 -478 0
-474 -475 0
-474 -476 0
-474 -477 0
-474 -478 0
-475 -476 0
-475 -477 0
-475 -478 0
-476 -477 0
-476 -478 0
-477 -478 0
479 480 481 482 483 484 23 485 486 0
-479 -480 0
-479 -481 0
-479 -482 0
-479 -483 0
-479 -484 0
-479 -23 0
-479 -485 0
-479 -486 0
-480 -481 0
-480 -482 0
-480 -483 0
-480 -484 0
-480 -23 0
-480 -485 0
-480 -486 0
-481 -482 0
-481 -483 0
-481 -484 0
-481 -23 0
-481 -485 0
-481 -486 0
-482 -483 0
-482 -484 0
-482 -23 0
-482 -485 0
-482 -486 0
-483 -484 0
-483 -23 0
-483 -485 0
-483 -486 0
-484 -23 0
-484 -485 0
-484 -486 0
-23 -485 0
-23 -486 0
-485 -486 0
487 488 489 490 491 492 493 494 495 0
-487 -488 0
-487 -489 0
-487 -490 0
-487 -491 0
-487 -492 0
-487 -493 0
-487 -494 0
-487 -495 0
-488 -489 0
-488 -490 0
-488 -491 0
-488 -492 0
-488 -493 0
-488 -494 0
-488 -495 0
-489 -490 0
-489 -491 0
-489 -492 0
-489 -493 0
-489 -494 0
-489 -495 0
-490 -491 0
-490 -492 0
-490 -493 0
-490 -494 0
-490 -495 0
-491 -492 0
-491 -493 0
-491 -494 0
-491 -495 0
-492 -493 0
-492 -494 0
-492 -495 0
-493 -494 0
-493 -495 0
-494 -495 0
496 497 498 499 500 501 502 503 504 0
-496 -497 0
-496 -498 0
-496 -499 0
-496 -500 0
-496 -501 0
-496 -502 0
-496 -503 0
-496 -504 0
-497 -498 0
-497 -499 0
-497 -500 0
-497 -501 0
-497 -502 0
-497 -503 0
-497 -504 0
-498 -499 0
-498 -500 0
-498 -501 0
-498 -502 0
-498 -503 0
-498 -504 0
-499 -500 0
-499 -501 0
-499 -502 0
-499 -503 0
-499 -504 0
-500 -501 0
-500 -502 0
-500 -503 0
-500 -504 0
-501 -502 0
-501 -503 0
-501 -504 0
-502 -503 0
-502 -504 0
-503 -504 0
505 506 507 508 509 510 511 512 513 0
-505 -506 0
-505 -507 0
-505 -508 0
-505 -509 0
-505 -510 0
-505 -511 0
-505 -512 0
-505 -513 0
-506 -507 0
-506 -508 0
-506 -509 0
-506 -510 0
-506 -511 0
-506 -512 0
-506 -513 0
-507 -508 0
-507 -509 0
-507 -510 0
-507 -511 0
-507 -512 0
-507 -513 0
-508 -509 0
-508 -510 0
-508 -511 0
-508 -512 0
-508 -513 0
-509 -510 0
-509 -511 0
-509 -512 0
-509 -513 0
-510 -511 0
-510 -512 0
-510 -513 0
-511 -512 0
-511 -513 0
-512 -513 0
514 515 516 517 518 519 520 521 522 0
-514 -515 0
-514 -516 0
-514 -517 0
-514 -518 0
-514 -519 0
-514 -520 0
-514 -521 0
-514 -522 0
-515 -516 0
-515 -517 0
-515 -518 0
-515 -519 0
-515 -520 0
-515 -521 0
-515 -522 0
-516 -517 0
-516 -518 0
-516 -519 0
-516 -520 0
-516 -521 0
-516 -522 0
-517 -518 0
-517 -519 0
-517 -520 0
-517 -521 0
-517 -522 0
-518 -519 0
-518 -520 0
-518 -521 0
-518 -522 0
-519 -520 0
-519 -521 0
-519 -522 0
-520 -521 0
-520 -522 0
-521 -522 0
523 524 525 526 15 527 528 529 530 0
-523 -524 0
-523 -525 0
-523 -526 0
-523 -15 0
-523 -527 0
-523 -528 0
-523 -529 0
-523 -530 0
-524 -525 0
-524 -526 0
-524 -15 0
-524 -527 0
-524 -528 0
-524 -529 0
-524 -530 0
-525 -526 0
-525 -15 0
-525 -527 0
-525 -528 0
-525 -529 0
-525 -530 0
-526 -15 0
-526 -527 0
-526 -528 0
-526 -529 0
-526 -530 0
-15 -527 0
-15 -528 0
-15 -529 0
-15 -530 0
-527 -528 0
-527 -529 0
-527 -530 0
-528 -529 0
-528 -530 0
-529 -530 0
531 532 533 534 535 536 537 538 539 0
-531 -532 0
-531 -533 0
-531 -534 0
-531 -535 0
-531 -536 0
-531 -537 0
-531 -538 0
-531 -539 0
-532 -533 0
-532 -534 0
-532 -535 0
-532 -536 0
-532 -537 0
-532 -538 0
-532 -539 0
-533 -534 0
-533 -535 0
-533 -536 0
-533 -537 0
-533 -538 0
-533 -539 0
-534 -535 0
-534 -536 0
-534 -537 0
-534 -538 0
-534 -539 0
-535 -536 0
-535 -537 0
-535 -538 0
-535 -539 0
-536 -537 0
-536 -538 0
-536 -539 0
-537 -538 0
-537 -539 0
-538 -539 0
540 541 542 543 544 545 546 547 548 0
-540 -541 0
-540 -542 0
-540 -543 0
-540 -544 0
-540 -545 0
-540 -546 0
-540 -547 0
-540 -548 0
-541 -542 0
-541 -543 0
-541 -544 0
-541 -545 0
-541 -546 0
-541 -547 0
-541 -548 0
-542 -543 0
-542 -544 0
-542 -545 0
-542 -546 0
-542 -547 0
-542 -548 0
-543 -544 0
-543 -545 0
-543 -546 0
-543 -547 0
-543 -548 0
-544 -545 0
-544 -546 0
-544 -547 0
-544 -548 0
-545 -546 0
-545 -547 0
-545 -548 0
-546 -547 0
-546 -548 0
-547 -548 0
549 550 551 552 553 554 555 26 556 0
-549 -550 0
-549 -551 0
-549 -552 0
-549 -553 0
-549 -554 0
-549 -555 0
-549 -26 0
-549 -556 0
-550 -551 0
-550 -552 0
-550 -553 0
-550 -554 0
-550 -555 0
-550 -26 0
-550 -556 0
-551 -552 0
-551 -553 0
-551 -554 0
-551 -555 0
-551 -26 0
-551 -556 0
-552 -553 0
-552 -554 0
-552 -555 0
-552 -26 0
-552 -556 0
-553 -554 0
-553 -555 0
-553 -26 0
-553 -556 0
-554 -555 0
-554 -26 0
-554 -556 0
-555 -26 0
-555 -556 0
-26 -556 0
557 558 559 560 561 562 563 564 565 0
-557 -558 0
-557 -559 0
-557 -560 0
-557 -561 0
-557 -562 0
-557 -563 0
-557 -564 0
-557 -565 0
-558 -559 0
-558 -560 0
-558 -561 0
-558 -562 0
-558 -563 0
-558 -564 0
-558 -565 0
-559 -560 0
-559 -561 0
-559 -562 0
-559 -563 0
-559 -564 0
-559 -565 0
-560 -561 0
-560 -562 0
-560 -563 0
-560 -564 0
-560 -565 0
-561 -562 0
-561 -563 0
-561 -564 0
-561 -565 0
-562 -563 0
-562 -564 0
-562 -565 0
-563 -564 0
-563 -565 0
-564 -565 0
566 5 567 568 569 570 571 572 573 0
-566 -5 0
-566 -567 0
-566 -568 0
-566 -569 0
-566 -570 0
-566 -571 0
-566 -572 0
-566 -573 0
-5 -567 0
-5 -568 0
-5 -569 0
-5 -570 0
-5 -571 0
-5 -572 0
-5 -573 0
-567 -568 0
-567 -569 0
-567 -570 0
-567 -571 0
-567 -572 0
-567 -573 0
-568 -569 0
-568 -570 0
-568 -571 0
-568 -572 0
-568 -573 0
-569 -570 0
-569 -571 0
-569 -572 0
-569 -573 0
-570 -571 0
-570 -572 0
-570 -573 0
-571 -572 0
-571 -573 0
-572 -573 0
2 574 575 576 577 578 579 580 581 0
-2 -574 0
-2 -575 0
-2 -576 0
-2 -577 0
-2 -578 0
-2 -579 0
-2 -580 0
-2 -581 0
-574 -575 0
-574 -576 0
-574 -577 0
-574 -578 0
-574 -579 0
-574 -580 0
-574 -581 0
-575 -576 0
-575 -577 0
-575 -578 0
-575 -579 0
-575 -580 0
-575 -581 0
-576 -577 0
-576 -578 0
-576 -579 0
-576 -580 0
-576 -581 0
-577 -578 0
-577 -579 0
-577 -580 0
-577 -581 0
-578 -579 0
-578 -580 0
-578 -581 0
-579 -580 0
-579 -581 0
-580 -581 0
582 583 584 585 586 587 588 589 28 0
-582 -583 0
-582 -584 0
-582 -585 0
-582 -586 0
-582 -587 0
-582 -588 0
-582 -589 0
-582 -28 0
-583 -584 0
-583 -585 0
-583 -586 0
-583 -587 0
-583 -588 0
-583 -589 0
-583 -28 0
-584 -585 0
-584 -586 0
-584 -587 0
-584 -588 0
-584 -589 0
-584 -28 0
-585 -586 0
-585 -587 0
-585 -588 0
-585 -589 0
-585 -28 0
-586 -587 0
-586 -588 0
-586 -589 0
-586 -28 0
-587 -588 0
-587 -589 0
-587 -28 0
-588 -589 0
-588 -28 0
-589 -28 0
590 591 592 593 594 595 596 597 598 0
-590 -591 0
-590 -592 0
-590 -593 0
-590 -594 0
-590 -595 0
-590 -596 0
-590 -597 0
-590 -598 0
-591 -592 0
-591 -593 0
-591 -594 0
-591 -595 0
-591 -596 0
-591 -597 0
-591 -598 0
-592 -593 0
-592 -594 0
-592 -595 0
-592 -596 0
-592 -597 0
-592 -598 0
-593 -594 0
-593 -595 0
-593 -596 0
-593 -597 0
-593 -598 0
-594 -595 0
-594 -596 0
-594 -597 0
-594 -598 0
-595 -596 0
-595 -597 0
-595 -598 0
-596 -597 0
-596 -598 0
-597 -598 0
599 600 601 602 603 604 605 606 607 0
-599 -600 0
-599 -601 0
-599 -602 0
-599 -603 0
-599 -604 0
-599 -605 0
-599 -606 0
-599 -607 0
-600 -601 0
-600 -602 0
-600 -603 0
-600 -604 0
-600 -605 0
-600 -606 0
-600 -607 0
-601 -602 0
-601 -603 0
-601 -604 0
-601 -605 0
-601 -606 0
-601 -607 0
-602 -603 0
-602 -604 0
-602 -605 0
-602 -606 0
-602 -607 0
-603 -604 0
-603 -605 0
-603 -606 0
-603 -607 0
-604 -605 0
-604 -606 0
-604 -607 0
-605 -606 0
-605 -607 0
-606 -607 0
608 609 610 611 612 613 614 615 616 0
-608 -609 0
-608 -610 0
-608 -611 0
-608 -612 0
-608 -613 0
-608 -614 0
-608 -615 0
-608 -616 0
-609 -610 0
-609 -611 0
-609 -612 0
-609 -613 0
-609 -614 0
-609 -615 0
-609 -616 0
-610 -611 0
-610 -612 0
-610 -613 0
-610 -614 0
-610 -615 0
-610 -616 0
-611 -612 0
-611 -613 0
-611 -614 0
-611 -615 0
-611 -616 0
-612 -613 0
-612 -614 0
-612 -615 0
-612 -616 0
-613 -614 0
-613 -615 0
-613 -616 0
-614 -615 0
-614 -616 0
-615 -616 0
617 618 619 620 621 622 623 624 625 0
-617 -618 0
-617 -619 0
-617 -620 0
-617 -621 0
-617 -622 0
-617 -623 0
-617 -624 0
-617 -625 0
-618 -619 0
-618 -620 0
-618 -621 0
-618 -622 0
-618 -623 0
-618 -624 0
-618 -625 0
-619 -620 0
-619 -621 0
-619 -622 0
-619 -623 0
-619 -624 0
-619 -625 0
-620 -621 0
-620 -622 0
-620 -623 0
-620 -624 0
-620 -625 0
-621 -622 0
-621 -623 0
-621 -624 0
-621 -625 0
-622 -623 0
-622 -624 0
-622 -625 0
-623 -624 0
-623 -625 0
-624 -625 0
626 627 628 12 629 630 631 632 633 0
-626 -627 0
-626 -628 0
-626 -12 0
-626 -629 0
-626 -630 0
-626 -631 0
-626 -632 0
-626 -633 0
-627 -628 0
-627 -12 0
-627 -629 0
-627 -630 0
-627 -631 0
-627 -632 0
-627 -633 0
-628 -12 0
-628 -629 0
-628 -630 0
-628 -631 0
-628 -632 0
-628 -633 0
-12 -629 0
-12 -630 0
-12 -631 0
-12 -632 0
-12 -633 0
-629 -630 0
-629 -631 0
-629 -632 0
-629 -633 0
-630 -631 0
-630 -632 0
-630 -633 0
-631 -632 0
-631 -633 0
-632 -633 0
634 635 636 637 638 19 639 640 641 0
-634 -635 0
-634 -636 0
-634 -637 0
-634 -638 0
-634 -19 0
-634 -639 0
-634 -640 0
-634 -641 0
-635 -636 0
-635 -637 0
-635 -638 0
-635 -19 0
-635 -639 0
-635 -640 0
-635 -641 0
-636 -637 0
-636 -638 0
-636 -19 0
-636 -639 0
-636 -640 0
-636 -641 0
-637 -638 0
-637 -19 0
-637 -639 0
-637 -640 0
-637 -641 0
-638 -19 0
-638 -639 0
-638 -640 0
-638 -641 0
-19 -639 0
-19 -640 0
-19 -641 0
-639 -640 0
-639 -641 0
-640 -641 0
642 643 644 645 646 647 648 649 650 0
-642 -643 0
-642 -644 0
-642 -645 0
-642 -646 0
-642 -647 0
-642 -648 0
-642 -649 0
-642 -650 0
-643 -644 0
-643 -645 0
-643 -646 0
-643 -647 0
-643 -648 0
-643 -649 0
-643 -650 0
-644 -645 0
-644 -646 0
-644 -647 0
-644 -648 0
-644 -649 0
-644 -650 0
-645 -646 0
-645 -647 0
-645 -648 0
-645 -649 0
-645 -650 0
-646 -647 0
-646 -648 0
-646 -649 0
-646 -650 0
-647 -648 0
-647 -649 0
-647 -650 0
-648 -649 0
-648 -650 0
-649 -650 0
651 652 653 654 655 656 657 658 659 0
-651 -652 0
-651 -653 0
-651 -654 0
-651 -655 0
-651 -656 0
-651 -657 0
-651 -658 0
-651 -659 0
-652 -653 0
-652 -654 0
-652 -655 0
-652 -656 0
-652 -657 0
-652 -658 0
-652 -659 0
-653 -654 0
-653 -655 0
-653 -656 0
-653 -657 0
-653 -658 0
-653 -659 0
-654 -655 0
-654 -656 0
-654 -657 0
-654 -658 0
-654 -659 0
-655 -656 0
-655 -657 0
-655 -658 0
-655 -659 0
-656 -657 0
-656 -658 0
-656 -659 0
-657 -658 0
-657 -659 0
-658 -659 0
660 661 662 663 664 665 666 667 668 0
-660 -661 0
-660 -662 0
-660 -663 0
-660 -664 0
-660 -665 0
-660 -666 0
-660 -667 0
-660 -668 0
-661 -662 0
-661 -663 0
-661 -664 0
-661 -665 0
-661 -666 0
-661 -667 0
-661 -668 0
-662 -663 0
-662 -664 0
-662 -665 0
-662 -666 0
-662 -667 0
-662 -668 0
-663 -664 0
-663 -665 0
-663 -666 0
-663 -667 0
-663 -668 0
-664 -665 0
-664 -666 0
-664 -667 0
-664 -668 0
-665 -666 0
-665 -667 0
-665 -668 0
-666 -667 0
-666 -668 0
-667 -668 0
669 670 671 672 673 20 674 675 676 0
-669 -670 0
-669 -671 0
-669 -672 0
-669 -673 0
-669 -20 0
-669 -674 0
-669 -675 0
-669 -676 0
-670 -671 0
-670 -672 0
-670 -673 0
-670 -20 0
-670 -674 0
-670 -675 0
-670 -676 0
-671 -672 0
-671 -673 0
-671 -20 0
-671 -674 0
-671 -675 0
-671 -676 0
-672 -673 0
-672 -20 0
-672 -674 0
-672 -675 0
-672 -676 0
-673 -20 0
-673 -674 0
-673 -675 0
-673 -676 0
-20 -674 0
-20 -675 0
-20 -676 0
-674 -675 0
-674 -676 0
-675 -676 0
677 678 679 680 681 682 683 684 685 0
-677 -678 0
-677 -679 0
-677 -680 0
-677 -681 0
-677 -682 0
-677 -683 0
-677 -684 0
-677 -685 0
-678 -679 0
-678 -680 0
-678 -681 0
-678 -682 0
-678 -683 0
-678 -684 0
-678 -685 0
-679 -680 0
-679 -681 0
-679 -682 0
-679 -683 0
-679 -684 0
-679 -685 0
-680 -681 0
-680 -682 0
-680 -683 0
-680 -684 0
-680 -685 0
-681 -682 0
-681 -683 0
-681 -684 0
-681 -685 0
-682 -683 0
-682 -684 0
-682 -685 0
-683 -684 0
-683 -685 0
-684 -685 0
686 687 688 689 690 691 692 693 694 0
-686 -687 0
-686 -688 0
-686 -689 0
-686 -690 0
-686 -691 0
-686 -692 0
-686 -693 0
-686 -694 0
-687 -688 0
-687 -689 0
-687 -690 0
-687 -691 0
-687 -692 0
-687 -693 0
-687 -694 0
-688 -689 0
-688 -690 0
-688 -691 0
-688 -692 0
-688 -693 0
-688 -694 0
-689 -690 0
-689 -691 0
-689 -692 0
-689 -693 0
-689 -694 0
-690 -691 0
-690 -692 0
-690 -693 0
-690 -694 0
-691 -692 0
-691 -693 0
-691 -694 0
-692 -693 0
-692 -694 0
-693 -694 0
695 696 697 698 699 700 701 702 703 0
-695 -696 0
-695 -697 0
-695 -698 0
-695 -699 0
-695 -700 0
-695 -701 0
-695 -702 0
-695 -703 0
-696 -697 0
-696 -698 0
-696 -699 0
-696 -700 0
-696 -701 0
-696 -702 0
-696 -703 0
-697 -698 0
-697 -699 0
-697 -700 0
-697 -701 0
-697 -702 0
-697 -703 0
-698 -699 0
-698 -700 0
-698 -701 0
-698 -702 0
-698 -703 0
-699 -700 0
-699 -701 0
-699 -702 0
-699 -703 0
-700 -701 0
-700 -702 0
-700 -703 0
-701 -702 0
-701 -703 0
-702 -703 0
704 705 706 707 708 709 710 711 712 0
-704 -705 0
-704 -706 0
-704 -707 0
-704 -708 0
-704 -709 0
-704 -710 0
-704 -711 0
-704 -712 0
-705 -706 0
-705 -707 0
-705 -708 0
-705 -709 0
-705 -710 0
-705 -711 0
-705 -712 0
-706 -707 0
-706 -708 0
-706 -709 0
-706 -710 0
-706 -711 0
-706 -712 0
-707 -708 0
-707 -709 0
-707 -710 0
-707 -711 0
-707 -712 0
-708 -709 0
-708 -710 0
-708 -711 0
-708 -712 0
-709 -710 0
-709 -711 0
-709 -712 0
-710 -711 0
-710 -712 0
-711 -712 0
713 714 715 716 717 718 719 720 721 0
-713 -714 0
-713 -715 0
-713 -716 0
-713 -717 0
-713 -718 0
-713 -719 0
-713 -720 0
-713 -721 0
-714 -715 0
-714 -716 0
-714 -717 0
-714 -718 0
-714 -719 0
-714 -720 0
-714 -721 0
-715 -716 0
-715 -717 0
-715 -718 0
-715 -719 0
-715 -720 0
-715 -721 0
-716 -717 0
-716 -718 0
-716 -719 0
-716 -720 0
-716 -721 0
-717 -718 0
-717 -719 0
-717 -720 0
-717 -721 0
-718 -719 0
-718 -720 0
-718 -721 0
-719 -720 0
-719 -721 0
-720 -721 0
722 723 724 13 725 726 727 728 729 0
-722 -723 0
-722 -724 0
-722 -13 0
-722 -725 0
-722 -726 0
-722 -727 0
-722 -728 0
-722 -729 0
-723 -724 0
-723 -13 0
-723 -725 0
-723 -726 0
-723 -727 0
-723 -728 0
-723 -729 0
-724 -13 0
-724 -725 0
-724 -726 0
-724 -727 0
-724 -728 0
-724 -729 0
-13 -725 0
-13 -726 0
-13 -727 0
-13 -728 0
-13 -729 0
-725 -726 0
-725 -727 0
-725 -728 0
-725 -729 0
-726 -727 0
-726 -728 0
-726 -729 0
-727 -728 0
-727 -729 0
-728 -729 0
